(set-info :status unknown)
(declare-fun %B () (_ BitVec 57))
(declare-fun %A () (_ BitVec 57))
(declare-fun %X () (_ BitVec 57))
(declare-fun u_%Y () (_ BitVec 8))
(declare-fun |ana_isPowerOf2(%A)| () (_ BitVec 1))
(assert
 (let ((?x16693 (bvshl %A %B)))
 (let ((?x662 (bvudiv %X ?x16693)))
 (let (($x12863 (= |ana_isPowerOf2(%A)| (_ bv1 1))))
 (let (($x214 (bvult %B (_ bv57 57))))
 (let (($x18541 (=> $x12863 (and (and (distinct %A (_ bv0 57)) true) (= (bvand %A (bvsub %A (_ bv1 57))) (_ bv0 57))))))
 (let (($x4454 (and (distinct ?x16693 (_ bv0 57)) true)))
 (and $x214 $x4454 $x18541 $x214 $x12863 (= u_%Y (_ bv1 8)) (and (distinct ?x662 ?x662) true)))))))))
(check-sat)
